p cnf 176 448
c weights 1.0 1.0 2.718281828459045 0.36787944117144233 2.718281828459045 0.36787944117144233 1.0 1.0 2.718281828459045 0.36787944117144233 2.718281828459045 0.36787944117144233 1.0 1.0 2.718281828459045 0.36787944117144233 2.718281828459045 0.36787944117144233 1.0 1.0 2.718281828459045 0.36787944117144233 2.718281828459045 0.36787944117144233 1.0 1.0 2.718281828459045 0.36787944117144233 2.718281828459045 0.36787944117144233 1.0 1.0 2.718281828459045 0.36787944117144233 2.718281828459045 0.36787944117144233 1.0 1.0 2.718281828459045 0.36787944117144233 2.718281828459045 0.36787944117144233 1.0 1.0 2.718281828459045 0.36787944117144233 1.0 1.0 2.718281828459045 0.36787944117144233 2.718281828459045 0.36787944117144233 1.0 1.0 2.718281828459045 0.36787944117144233 2.718281828459045 0.36787944117144233 1.0 1.0 2.718281828459045 0.36787944117144233 2.718281828459045 0.36787944117144233 1.0 1.0 2.718281828459045 0.36787944117144233 2.718281828459045 0.36787944117144233 1.0 1.0 2.718281828459045 0.36787944117144233 2.718281828459045 0.36787944117144233 1.0 1.0 2.718281828459045 0.36787944117144233 2.718281828459045 0.36787944117144233 1.0 1.0 2.718281828459045 0.36787944117144233 2.718281828459045 0.36787944117144233 1.0 1.0 2.718281828459045 0.36787944117144233 1.0 1.0 2.718281828459045 0.36787944117144233 2.718281828459045 0.36787944117144233 1.0 1.0 2.718281828459045 0.36787944117144233 2.718281828459045 0.36787944117144233 1.0 1.0 2.718281828459045 0.36787944117144233 2.718281828459045 0.36787944117144233 1.0 1.0 2.718281828459045 0.36787944117144233 2.718281828459045 0.36787944117144233 1.0 1.0 2.718281828459045 0.36787944117144233 2.718281828459045 0.36787944117144233 1.0 1.0 2.718281828459045 0.36787944117144233 2.718281828459045 0.36787944117144233 1.0 1.0 2.718281828459045 0.36787944117144233 2.718281828459045 0.36787944117144233 1.0 1.0 2.718281828459045 0.36787944117144233 1.0 1.0 2.718281828459045 0.36787944117144233 2.718281828459045 0.36787944117144233 1.0 1.0 2.718281828459045 0.36787944117144233 2.718281828459045 0.36787944117144233 1.0 1.0 2.718281828459045 0.36787944117144233 2.718281828459045 0.36787944117144233 1.0 1.0 2.718281828459045 0.36787944117144233 2.718281828459045 0.36787944117144233 1.0 1.0 2.718281828459045 0.36787944117144233 2.718281828459045 0.36787944117144233 1.0 1.0 2.718281828459045 0.36787944117144233 2.718281828459045 0.36787944117144233 1.0 1.0 2.718281828459045 0.36787944117144233 2.718281828459045 0.36787944117144233 1.0 1.0 2.718281828459045 0.36787944117144233 1.0 1.0 2.718281828459045 0.36787944117144233 2.718281828459045 0.36787944117144233 1.0 1.0 2.718281828459045 0.36787944117144233 2.718281828459045 0.36787944117144233 1.0 1.0 2.718281828459045 0.36787944117144233 2.718281828459045 0.36787944117144233 1.0 1.0 2.718281828459045 0.36787944117144233 2.718281828459045 0.36787944117144233 1.0 1.0 2.718281828459045 0.36787944117144233 2.718281828459045 0.36787944117144233 1.0 1.0 2.718281828459045 0.36787944117144233 2.718281828459045 0.36787944117144233 1.0 1.0 2.718281828459045 0.36787944117144233 2.718281828459045 0.36787944117144233 1.0 1.0 2.718281828459045 0.36787944117144233 1.0 1.0 2.718281828459045 0.36787944117144233 2.718281828459045 0.36787944117144233 1.0 1.0 2.718281828459045 0.36787944117144233 2.718281828459045 0.36787944117144233 1.0 1.0 2.718281828459045 0.36787944117144233 2.718281828459045 0.36787944117144233 1.0 1.0 2.718281828459045 0.36787944117144233 2.718281828459045 0.36787944117144233 1.0 1.0 2.718281828459045 0.36787944117144233 2.718281828459045 0.36787944117144233 1.0 1.0 2.718281828459045 0.36787944117144233 2.718281828459045 0.36787944117144233 1.0 1.0 2.718281828459045 0.36787944117144233 2.718281828459045 0.36787944117144233 1.0 1.0 2.718281828459045 0.36787944117144233 1.0 1.0 2.718281828459045 0.36787944117144233 2.718281828459045 0.36787944117144233 1.0 1.0 2.718281828459045 0.36787944117144233 2.718281828459045 0.36787944117144233 1.0 1.0 2.718281828459045 0.36787944117144233 2.718281828459045 0.36787944117144233 1.0 1.0 2.718281828459045 0.36787944117144233 2.718281828459045 0.36787944117144233 1.0 1.0 2.718281828459045 0.36787944117144233 2.718281828459045 0.36787944117144233 1.0 1.0 2.718281828459045 0.36787944117144233 2.718281828459045 0.36787944117144233 1.0 1.0 2.718281828459045 0.36787944117144233 2.718281828459045 0.36787944117144233 1.0 1.0 2.718281828459045 0.36787944117144233 1.0 1.0 2.718281828459045 0.36787944117144233 1.0 1.0 2.718281828459045 0.36787944117144233 1.0 1.0 2.718281828459045 0.36787944117144233 1.0 1.0 2.718281828459045 0.36787944117144233 1.0 1.0 2.718281828459045 0.36787944117144233 1.0 1.0 2.718281828459045 0.36787944117144233 1.0 1.0 2.718281828459045 0.36787944117144233 1.0 1.0
2 1 4 0
2 -1 -4 0
-2 1 -4 0
-2 -1 4 0
3 1 24 0
3 -1 -24 0
-3 1 -24 0
-3 -1 24 0
5 4 7 0
5 -4 -7 0
-5 4 -7 0
-5 -4 7 0
6 4 27 0
6 -4 -27 0
-6 4 -27 0
-6 -4 27 0
8 7 10 0
8 -7 -10 0
-8 7 -10 0
-8 -7 10 0
9 7 30 0
9 -7 -30 0
-9 7 -30 0
-9 -7 30 0
11 10 13 0
11 -10 -13 0
-11 10 -13 0
-11 -10 13 0
12 10 33 0
12 -10 -33 0
-12 10 -33 0
-12 -10 33 0
14 13 16 0
14 -13 -16 0
-14 13 -16 0
-14 -13 16 0
15 13 36 0
15 -13 -36 0
-15 13 -36 0
-15 -13 36 0
17 16 19 0
17 -16 -19 0
-17 16 -19 0
-17 -16 19 0
18 16 39 0
18 -16 -39 0
-18 16 -39 0
-18 -16 39 0
20 19 22 0
20 -19 -22 0
-20 19 -22 0
-20 -19 22 0
21 19 42 0
21 -19 -42 0
-21 19 -42 0
-21 -19 42 0
23 22 45 0
23 -22 -45 0
-23 22 -45 0
-23 -22 45 0
25 24 27 0
25 -24 -27 0
-25 24 -27 0
-25 -24 27 0
26 24 47 0
26 -24 -47 0
-26 24 -47 0
-26 -24 47 0
28 27 30 0
28 -27 -30 0
-28 27 -30 0
-28 -27 30 0
29 27 50 0
29 -27 -50 0
-29 27 -50 0
-29 -27 50 0
31 30 33 0
31 -30 -33 0
-31 30 -33 0
-31 -30 33 0
32 30 53 0
32 -30 -53 0
-32 30 -53 0
-32 -30 53 0
34 33 36 0
34 -33 -36 0
-34 33 -36 0
-34 -33 36 0
35 33 56 0
35 -33 -56 0
-35 33 -56 0
-35 -33 56 0
37 36 39 0
37 -36 -39 0
-37 36 -39 0
-37 -36 39 0
38 36 59 0
38 -36 -59 0
-38 36 -59 0
-38 -36 59 0
40 39 42 0
40 -39 -42 0
-40 39 -42 0
-40 -39 42 0
41 39 62 0
41 -39 -62 0
-41 39 -62 0
-41 -39 62 0
43 42 45 0
43 -42 -45 0
-43 42 -45 0
-43 -42 45 0
44 42 65 0
44 -42 -65 0
-44 42 -65 0
-44 -42 65 0
46 45 68 0
46 -45 -68 0
-46 45 -68 0
-46 -45 68 0
48 47 50 0
48 -47 -50 0
-48 47 -50 0
-48 -47 50 0
49 47 70 0
49 -47 -70 0
-49 47 -70 0
-49 -47 70 0
51 50 53 0
51 -50 -53 0
-51 50 -53 0
-51 -50 53 0
52 50 73 0
52 -50 -73 0
-52 50 -73 0
-52 -50 73 0
54 53 56 0
54 -53 -56 0
-54 53 -56 0
-54 -53 56 0
55 53 76 0
55 -53 -76 0
-55 53 -76 0
-55 -53 76 0
57 56 59 0
57 -56 -59 0
-57 56 -59 0
-57 -56 59 0
58 56 79 0
58 -56 -79 0
-58 56 -79 0
-58 -56 79 0
60 59 62 0
60 -59 -62 0
-60 59 -62 0
-60 -59 62 0
61 59 82 0
61 -59 -82 0
-61 59 -82 0
-61 -59 82 0
63 62 65 0
63 -62 -65 0
-63 62 -65 0
-63 -62 65 0
64 62 85 0
64 -62 -85 0
-64 62 -85 0
-64 -62 85 0
66 65 68 0
66 -65 -68 0
-66 65 -68 0
-66 -65 68 0
67 65 88 0
67 -65 -88 0
-67 65 -88 0
-67 -65 88 0
69 68 91 0
69 -68 -91 0
-69 68 -91 0
-69 -68 91 0
71 70 73 0
71 -70 -73 0
-71 70 -73 0
-71 -70 73 0
72 70 93 0
72 -70 -93 0
-72 70 -93 0
-72 -70 93 0
74 73 76 0
74 -73 -76 0
-74 73 -76 0
-74 -73 76 0
75 73 96 0
75 -73 -96 0
-75 73 -96 0
-75 -73 96 0
77 76 79 0
77 -76 -79 0
-77 76 -79 0
-77 -76 79 0
78 76 99 0
78 -76 -99 0
-78 76 -99 0
-78 -76 99 0
80 79 82 0
80 -79 -82 0
-80 79 -82 0
-80 -79 82 0
81 79 102 0
81 -79 -102 0
-81 79 -102 0
-81 -79 102 0
83 82 85 0
83 -82 -85 0
-83 82 -85 0
-83 -82 85 0
84 82 105 0
84 -82 -105 0
-84 82 -105 0
-84 -82 105 0
86 85 88 0
86 -85 -88 0
-86 85 -88 0
-86 -85 88 0
87 85 108 0
87 -85 -108 0
-87 85 -108 0
-87 -85 108 0
89 88 91 0
89 -88 -91 0
-89 88 -91 0
-89 -88 91 0
90 88 111 0
90 -88 -111 0
-90 88 -111 0
-90 -88 111 0
92 91 114 0
92 -91 -114 0
-92 91 -114 0
-92 -91 114 0
94 93 96 0
94 -93 -96 0
-94 93 -96 0
-94 -93 96 0
95 93 116 0
95 -93 -116 0
-95 93 -116 0
-95 -93 116 0
97 96 99 0
97 -96 -99 0
-97 96 -99 0
-97 -96 99 0
98 96 119 0
98 -96 -119 0
-98 96 -119 0
-98 -96 119 0
100 99 102 0
100 -99 -102 0
-100 99 -102 0
-100 -99 102 0
101 99 122 0
101 -99 -122 0
-101 99 -122 0
-101 -99 122 0
103 102 105 0
103 -102 -105 0
-103 102 -105 0
-103 -102 105 0
104 102 125 0
104 -102 -125 0
-104 102 -125 0
-104 -102 125 0
106 105 108 0
106 -105 -108 0
-106 105 -108 0
-106 -105 108 0
107 105 128 0
107 -105 -128 0
-107 105 -128 0
-107 -105 128 0
109 108 111 0
109 -108 -111 0
-109 108 -111 0
-109 -108 111 0
110 108 131 0
110 -108 -131 0
-110 108 -131 0
-110 -108 131 0
112 111 114 0
112 -111 -114 0
-112 111 -114 0
-112 -111 114 0
113 111 134 0
113 -111 -134 0
-113 111 -134 0
-113 -111 134 0
115 114 137 0
115 -114 -137 0
-115 114 -137 0
-115 -114 137 0
117 116 119 0
117 -116 -119 0
-117 116 -119 0
-117 -116 119 0
118 116 139 0
118 -116 -139 0
-118 116 -139 0
-118 -116 139 0
120 119 122 0
120 -119 -122 0
-120 119 -122 0
-120 -119 122 0
121 119 142 0
121 -119 -142 0
-121 119 -142 0
-121 -119 142 0
123 122 125 0
123 -122 -125 0
-123 122 -125 0
-123 -122 125 0
124 122 145 0
124 -122 -145 0
-124 122 -145 0
-124 -122 145 0
126 125 128 0
126 -125 -128 0
-126 125 -128 0
-126 -125 128 0
127 125 148 0
127 -125 -148 0
-127 125 -148 0
-127 -125 148 0
129 128 131 0
129 -128 -131 0
-129 128 -131 0
-129 -128 131 0
130 128 151 0
130 -128 -151 0
-130 128 -151 0
-130 -128 151 0
132 131 134 0
132 -131 -134 0
-132 131 -134 0
-132 -131 134 0
133 131 154 0
133 -131 -154 0
-133 131 -154 0
-133 -131 154 0
135 134 137 0
135 -134 -137 0
-135 134 -137 0
-135 -134 137 0
136 134 157 0
136 -134 -157 0
-136 134 -157 0
-136 -134 157 0
138 137 160 0
138 -137 -160 0
-138 137 -160 0
-138 -137 160 0
140 139 142 0
140 -139 -142 0
-140 139 -142 0
-140 -139 142 0
141 139 162 0
141 -139 -162 0
-141 139 -162 0
-141 -139 162 0
143 142 145 0
143 -142 -145 0
-143 142 -145 0
-143 -142 145 0
144 142 164 0
144 -142 -164 0
-144 142 -164 0
-144 -142 164 0
146 145 148 0
146 -145 -148 0
-146 145 -148 0
-146 -145 148 0
147 145 166 0
147 -145 -166 0
-147 145 -166 0
-147 -145 166 0
149 148 151 0
149 -148 -151 0
-149 148 -151 0
-149 -148 151 0
150 148 168 0
150 -148 -168 0
-150 148 -168 0
-150 -148 168 0
152 151 154 0
152 -151 -154 0
-152 151 -154 0
-152 -151 154 0
153 151 170 0
153 -151 -170 0
-153 151 -170 0
-153 -151 170 0
155 154 157 0
155 -154 -157 0
-155 154 -157 0
-155 -154 157 0
156 154 172 0
156 -154 -172 0
-156 154 -172 0
-156 -154 172 0
158 157 160 0
158 -157 -160 0
-158 157 -160 0
-158 -157 160 0
159 157 174 0
159 -157 -174 0
-159 157 -174 0
-159 -157 174 0
161 160 176 0
161 -160 -176 0
-161 160 -176 0
-161 -160 176 0
163 162 164 0
163 -162 -164 0
-163 162 -164 0
-163 -162 164 0
165 164 166 0
165 -164 -166 0
-165 164 -166 0
-165 -164 166 0
167 166 168 0
167 -166 -168 0
-167 166 -168 0
-167 -166 168 0
169 168 170 0
169 -168 -170 0
-169 168 -170 0
-169 -168 170 0
171 170 172 0
171 -170 -172 0
-171 170 -172 0
-171 -170 172 0
173 172 174 0
173 -172 -174 0
-173 172 -174 0
-173 -172 174 0
175 174 176 0
175 -174 -176 0
-175 174 -176 0
-175 -174 176 0
